150 7125
1 103 82 95 107 5 143 100 97 146 26 56 83 75 18 142 85 65 132 137 50 55 58 141 25 20 81 110 29 86 135 70 108 102 114 99 19 2 37 6 28 9 42 120 47 139 40 53 118 24 12 116 101 41 57 39 127 69 36 61 11 148 130 60 66 17 140 117 27 129 31 136 112 64 44 71 115 150 21 88 10 113 3 62 149 125 22 104 4 45 128 68 119 91 106 13 74 123 145 144 147 49 72 80 14 122 78 79 121 94 96 89 8 84 7 124 93 52 105 111 59 15 16 133 77 131 23 38 32 67 43 109 51 138 134 46 90 92 54 33 126 35 30 63 48 73 76 87 34 98 
